50
1000
611
561
544
528
521
472
470
462
458
439
434
432
426
424
412
375
373
365
363
359
350
348
344
344
341
313
310
309
301
294
290
279
260
245
221
219
211
206
203
199
198
145
124
112
110
82
78
69
66
39
